p cnf 872 2432
-21 1 0
-21 -12 0
21 -1 12 0
-22 -11 0
-22 -21 0
22 11 21 0
-23 -10 0
-23 22 0
23 10 -22 0
-24 -9 0
-24 23 0
24 9 -23 0
-25 -8 0
-25 24 0
25 8 -24 0
-26 -7 0
-26 25 0
26 7 -25 0
-27 -6 0
-27 26 0
27 6 -26 0
-28 -5 0
-28 27 0
28 5 -27 0
-29 -4 0
-29 28 0
29 4 -28 0
-30 -3 0
-30 29 0
30 3 -29 0
-31 11 0
-31 21 0
31 -11 -21 0
-32 -22 0
-32 -31 0
32 22 31 0
-33 30 0
-33 32 0
33 -30 -32 0
-34 1 0
-34 -13 0
34 -1 13 0
-35 -11 0
-35 -34 0
35 11 34 0
-36 1 0
-36 30 0
36 -1 -30 0
-37 -12 0
-37 -36 0
37 12 36 0
-38 12 0
-38 36 0
38 -12 -36 0
-39 -37 0
-39 -38 0
39 37 38 0
-40 11 0
-40 34 0
40 -11 -34 0
-41 39 0
-41 -40 0
41 -39 40 0
-42 -35 0
-42 -41 0
42 35 41 0
-43 -10 0
-43 -42 0
43 10 42 0
-44 10 0
-44 42 0
44 -10 -42 0
-45 33 0
-45 -44 0
45 -33 44 0
-46 -43 0
-46 -45 0
46 43 45 0
-47 -9 0
-47 -46 0
47 9 46 0
-48 10 0
-48 -22 0
48 -10 22 0
-49 -23 0
-49 -48 0
49 23 48 0
-50 30 0
-50 49 0
50 -30 -49 0
-51 9 0
-51 46 0
51 -9 -46 0
-52 50 0
-52 -51 0
52 -50 51 0
-53 -47 0
-53 -52 0
53 47 52 0
-54 -8 0
-54 -53 0
54 8 53 0
-55 9 0
-55 -23 0
55 -9 23 0
-56 -24 0
-56 -55 0
56 24 55 0
-57 30 0
-57 56 0
57 -30 -56 0
-58 8 0
-58 53 0
58 -8 -53 0
-59 57 0
-59 -58 0
59 -57 58 0
-60 -54 0
-60 -59 0
60 54 59 0
-61 -7 0
-61 -60 0
61 7 60 0
-62 8 0
-62 -24 0
62 -8 24 0
-63 -25 0
-63 -62 0
63 25 62 0
-64 30 0
-64 63 0
64 -30 -63 0
-65 7 0
-65 60 0
65 -7 -60 0
-66 64 0
-66 -65 0
66 -64 65 0
-67 -61 0
-67 -66 0
67 61 66 0
-68 -6 0
-68 -67 0
68 6 67 0
-69 7 0
-69 -25 0
69 -7 25 0
-70 -26 0
-70 -69 0
70 26 69 0
-71 30 0
-71 70 0
71 -30 -70 0
-72 6 0
-72 67 0
72 -6 -67 0
-73 71 0
-73 -72 0
73 -71 72 0
-74 -68 0
-74 -73 0
74 68 73 0
-75 -5 0
-75 -74 0
75 5 74 0
-76 6 0
-76 -26 0
76 -6 26 0
-77 -27 0
-77 -76 0
77 27 76 0
-78 30 0
-78 77 0
78 -30 -77 0
-79 5 0
-79 74 0
79 -5 -74 0
-80 78 0
-80 -79 0
80 -78 79 0
-81 -75 0
-81 -80 0
81 75 80 0
-82 -4 0
-82 -81 0
82 4 81 0
-83 5 0
-83 -27 0
83 -5 27 0
-84 -28 0
-84 -83 0
84 28 83 0
-85 30 0
-85 84 0
85 -30 -84 0
-86 4 0
-86 81 0
86 -4 -81 0
-87 85 0
-87 -86 0
87 -85 86 0
-88 -82 0
-88 -87 0
88 82 87 0
-89 -3 0
-89 -88 0
89 3 88 0
-90 -43 0
-90 -44 0
90 43 44 0
-91 89 0
-91 90 0
91 -89 -90 0
-92 -33 0
-92 -91 0
92 33 91 0
-93 33 0
-93 91 0
93 -33 -91 0
-94 -92 0
-94 -93 0
94 92 93 0
-95 1 0
-95 -14 0
95 -1 14 0
-96 -11 0
-96 -95 0
96 11 95 0
-97 1 0
-97 89 0
97 -1 -89 0
-98 -13 0
-98 -97 0
98 13 97 0
-99 13 0
-99 97 0
99 -13 -97 0
-100 -98 0
-100 -99 0
100 98 99 0
-101 11 0
-101 95 0
101 -11 -95 0
-102 100 0
-102 -101 0
102 -100 101 0
-103 -96 0
-103 -102 0
103 96 102 0
-104 -10 0
-104 -103 0
104 10 103 0
-105 -35 0
-105 -40 0
105 35 40 0
-106 89 0
-106 105 0
106 -89 -105 0
-107 -39 0
-107 -106 0
107 39 106 0
-108 39 0
-108 106 0
108 -39 -106 0
-109 -107 0
-109 -108 0
109 107 108 0
-110 10 0
-110 103 0
110 -10 -103 0
-111 109 0
-111 -110 0
111 -109 110 0
-112 -104 0
-112 -111 0
112 104 111 0
-113 -9 0
-113 -112 0
113 9 112 0
-114 9 0
-114 112 0
114 -9 -112 0
-115 94 0
-115 -114 0
115 -94 114 0
-116 -113 0
-116 -115 0
116 113 115 0
-117 -8 0
-117 -116 0
117 8 116 0
-118 -47 0
-118 -51 0
118 47 51 0
-119 89 0
-119 118 0
119 -89 -118 0
-120 -50 0
-120 -119 0
120 50 119 0
-121 50 0
-121 119 0
121 -50 -119 0
-122 -120 0
-122 -121 0
122 120 121 0
-123 8 0
-123 116 0
123 -8 -116 0
-124 122 0
-124 -123 0
124 -122 123 0
-125 -117 0
-125 -124 0
125 117 124 0
-126 -7 0
-126 -125 0
126 7 125 0
-127 -54 0
-127 -58 0
127 54 58 0
-128 89 0
-128 127 0
128 -89 -127 0
-129 -57 0
-129 -128 0
129 57 128 0
-130 57 0
-130 128 0
130 -57 -128 0
-131 -129 0
-131 -130 0
131 129 130 0
-132 7 0
-132 125 0
132 -7 -125 0
-133 131 0
-133 -132 0
133 -131 132 0
-134 -126 0
-134 -133 0
134 126 133 0
-135 -6 0
-135 -134 0
135 6 134 0
-136 -61 0
-136 -65 0
136 61 65 0
-137 89 0
-137 136 0
137 -89 -136 0
-138 -64 0
-138 -137 0
138 64 137 0
-139 64 0
-139 137 0
139 -64 -137 0
-140 -138 0
-140 -139 0
140 138 139 0
-141 6 0
-141 134 0
141 -6 -134 0
-142 140 0
-142 -141 0
142 -140 141 0
-143 -135 0
-143 -142 0
143 135 142 0
-144 -5 0
-144 -143 0
144 5 143 0
-145 -68 0
-145 -72 0
145 68 72 0
-146 89 0
-146 145 0
146 -89 -145 0
-147 -71 0
-147 -146 0
147 71 146 0
-148 71 0
-148 146 0
148 -71 -146 0
-149 -147 0
-149 -148 0
149 147 148 0
-150 5 0
-150 143 0
150 -5 -143 0
-151 149 0
-151 -150 0
151 -149 150 0
-152 -144 0
-152 -151 0
152 144 151 0
-153 -4 0
-153 -152 0
153 4 152 0
-154 -75 0
-154 -79 0
154 75 79 0
-155 89 0
-155 154 0
155 -89 -154 0
-156 -78 0
-156 -155 0
156 78 155 0
-157 78 0
-157 155 0
157 -78 -155 0
-158 -156 0
-158 -157 0
158 156 157 0
-159 4 0
-159 152 0
159 -4 -152 0
-160 158 0
-160 -159 0
160 -158 159 0
-161 -153 0
-161 -160 0
161 153 160 0
-162 -3 0
-162 -161 0
162 3 161 0
-163 -82 0
-163 -86 0
163 82 86 0
-164 89 0
-164 163 0
164 -89 -163 0
-165 -85 0
-165 -164 0
165 85 164 0
-166 85 0
-166 164 0
166 -85 -164 0
-167 -165 0
-167 -166 0
167 165 166 0
-168 3 0
-168 161 0
168 -3 -161 0
-169 167 0
-169 -168 0
169 -167 168 0
-170 -162 0
-170 -169 0
170 162 169 0
-171 -113 0
-171 -114 0
171 113 114 0
-172 -170 0
-172 171 0
172 170 -171 0
-173 -94 0
-173 -172 0
173 94 172 0
-174 94 0
-174 172 0
174 -94 -172 0
-175 -173 0
-175 -174 0
175 173 174 0
-176 -162 0
-176 -168 0
176 162 168 0
-177 167 0
-177 -176 0
177 -167 176 0
-178 1 0
-178 -15 0
178 -1 15 0
-179 -11 0
-179 -178 0
179 11 178 0
-180 1 0
-180 -170 0
180 -1 170 0
-181 -14 0
-181 -180 0
181 14 180 0
-182 14 0
-182 180 0
182 -14 -180 0
-183 -181 0
-183 -182 0
183 181 182 0
-184 11 0
-184 178 0
184 -11 -178 0
-185 183 0
-185 -184 0
185 -183 184 0
-186 -179 0
-186 -185 0
186 179 185 0
-187 -10 0
-187 -186 0
187 10 186 0
-188 -96 0
-188 -101 0
188 96 101 0
-189 -170 0
-189 188 0
189 170 -188 0
-190 -100 0
-190 -189 0
190 100 189 0
-191 100 0
-191 189 0
191 -100 -189 0
-192 -190 0
-192 -191 0
192 190 191 0
-193 10 0
-193 186 0
193 -10 -186 0
-194 192 0
-194 -193 0
194 -192 193 0
-195 -187 0
-195 -194 0
195 187 194 0
-196 -9 0
-196 -195 0
196 9 195 0
-197 -104 0
-197 -110 0
197 104 110 0
-198 -170 0
-198 197 0
198 170 -197 0
-199 -109 0
-199 -198 0
199 109 198 0
-200 109 0
-200 198 0
200 -109 -198 0
-201 -199 0
-201 -200 0
201 199 200 0
-202 9 0
-202 195 0
202 -9 -195 0
-203 201 0
-203 -202 0
203 -201 202 0
-204 -196 0
-204 -203 0
204 196 203 0
-205 -8 0
-205 -204 0
205 8 204 0
-206 8 0
-206 204 0
206 -8 -204 0
-207 175 0
-207 -206 0
207 -175 206 0
-208 -205 0
-208 -207 0
208 205 207 0
-209 -7 0
-209 -208 0
209 7 208 0
-210 -117 0
-210 -123 0
210 117 123 0
-211 -170 0
-211 210 0
211 170 -210 0
-212 -122 0
-212 -211 0
212 122 211 0
-213 122 0
-213 211 0
213 -122 -211 0
-214 -212 0
-214 -213 0
214 212 213 0
-215 7 0
-215 208 0
215 -7 -208 0
-216 214 0
-216 -215 0
216 -214 215 0
-217 -209 0
-217 -216 0
217 209 216 0
-218 -6 0
-218 -217 0
218 6 217 0
-219 -126 0
-219 -132 0
219 126 132 0
-220 -170 0
-220 219 0
220 170 -219 0
-221 -131 0
-221 -220 0
221 131 220 0
-222 131 0
-222 220 0
222 -131 -220 0
-223 -221 0
-223 -222 0
223 221 222 0
-224 6 0
-224 217 0
224 -6 -217 0
-225 223 0
-225 -224 0
225 -223 224 0
-226 -218 0
-226 -225 0
226 218 225 0
-227 -5 0
-227 -226 0
227 5 226 0
-228 -135 0
-228 -141 0
228 135 141 0
-229 -170 0
-229 228 0
229 170 -228 0
-230 -140 0
-230 -229 0
230 140 229 0
-231 140 0
-231 229 0
231 -140 -229 0
-232 -230 0
-232 -231 0
232 230 231 0
-233 5 0
-233 226 0
233 -5 -226 0
-234 232 0
-234 -233 0
234 -232 233 0
-235 -227 0
-235 -234 0
235 227 234 0
-236 -4 0
-236 -235 0
236 4 235 0
-237 -144 0
-237 -150 0
237 144 150 0
-238 -170 0
-238 237 0
238 170 -237 0
-239 -149 0
-239 -238 0
239 149 238 0
-240 149 0
-240 238 0
240 -149 -238 0
-241 -239 0
-241 -240 0
241 239 240 0
-242 4 0
-242 235 0
242 -4 -235 0
-243 241 0
-243 -242 0
243 -241 242 0
-244 -236 0
-244 -243 0
244 236 243 0
-245 -3 0
-245 -244 0
245 3 244 0
-246 -153 0
-246 -159 0
246 153 159 0
-247 -170 0
-247 246 0
247 170 -246 0
-248 -158 0
-248 -247 0
248 158 247 0
-249 158 0
-249 247 0
249 -158 -247 0
-250 -248 0
-250 -249 0
250 248 249 0
-251 3 0
-251 244 0
251 -3 -244 0
-252 250 0
-252 -251 0
252 -250 251 0
-253 -245 0
-253 -252 0
253 245 252 0
-254 -177 0
-254 253 0
254 177 -253 0
-255 -205 0
-255 -206 0
255 205 206 0
-256 -254 0
-256 255 0
256 254 -255 0
-257 -175 0
-257 -256 0
257 175 256 0
-258 175 0
-258 256 0
258 -175 -256 0
-259 -257 0
-259 -258 0
259 257 258 0
-260 -245 0
-260 -251 0
260 245 251 0
-261 -254 0
-261 260 0
261 254 -260 0
-262 -250 0
-262 -261 0
262 250 261 0
-263 250 0
-263 261 0
263 -250 -261 0
-264 -262 0
-264 -263 0
264 262 263 0
-265 1 0
-265 -16 0
265 -1 16 0
-266 -11 0
-266 -265 0
266 11 265 0
-267 1 0
-267 -254 0
267 -1 254 0
-268 -15 0
-268 -267 0
268 15 267 0
-269 15 0
-269 267 0
269 -15 -267 0
-270 -268 0
-270 -269 0
270 268 269 0
-271 11 0
-271 265 0
271 -11 -265 0
-272 270 0
-272 -271 0
272 -270 271 0
-273 -266 0
-273 -272 0
273 266 272 0
-274 -10 0
-274 -273 0
274 10 273 0
-275 -179 0
-275 -184 0
275 179 184 0
-276 -254 0
-276 275 0
276 254 -275 0
-277 -183 0
-277 -276 0
277 183 276 0
-278 183 0
-278 276 0
278 -183 -276 0
-279 -277 0
-279 -278 0
279 277 278 0
-280 10 0
-280 273 0
280 -10 -273 0
-281 279 0
-281 -280 0
281 -279 280 0
-282 -274 0
-282 -281 0
282 274 281 0
-283 -9 0
-283 -282 0
283 9 282 0
-284 -187 0
-284 -193 0
284 187 193 0
-285 -254 0
-285 284 0
285 254 -284 0
-286 -192 0
-286 -285 0
286 192 285 0
-287 192 0
-287 285 0
287 -192 -285 0
-288 -286 0
-288 -287 0
288 286 287 0
-289 9 0
-289 282 0
289 -9 -282 0
-290 288 0
-290 -289 0
290 -288 289 0
-291 -283 0
-291 -290 0
291 283 290 0
-292 -8 0
-292 -291 0
292 8 291 0
-293 -196 0
-293 -202 0
293 196 202 0
-294 -254 0
-294 293 0
294 254 -293 0
-295 -201 0
-295 -294 0
295 201 294 0
-296 201 0
-296 294 0
296 -201 -294 0
-297 -295 0
-297 -296 0
297 295 296 0
-298 8 0
-298 291 0
298 -8 -291 0
-299 297 0
-299 -298 0
299 -297 298 0
-300 -292 0
-300 -299 0
300 292 299 0
-301 -7 0
-301 -300 0
301 7 300 0
-302 7 0
-302 300 0
302 -7 -300 0
-303 259 0
-303 -302 0
303 -259 302 0
-304 -301 0
-304 -303 0
304 301 303 0
-305 -6 0
-305 -304 0
305 6 304 0
-306 -209 0
-306 -215 0
306 209 215 0
-307 -254 0
-307 306 0
307 254 -306 0
-308 -214 0
-308 -307 0
308 214 307 0
-309 214 0
-309 307 0
309 -214 -307 0
-310 -308 0
-310 -309 0
310 308 309 0
-311 6 0
-311 304 0
311 -6 -304 0
-312 310 0
-312 -311 0
312 -310 311 0
-313 -305 0
-313 -312 0
313 305 312 0
-314 -5 0
-314 -313 0
314 5 313 0
-315 -218 0
-315 -224 0
315 218 224 0
-316 -254 0
-316 315 0
316 254 -315 0
-317 -223 0
-317 -316 0
317 223 316 0
-318 223 0
-318 316 0
318 -223 -316 0
-319 -317 0
-319 -318 0
319 317 318 0
-320 5 0
-320 313 0
320 -5 -313 0
-321 319 0
-321 -320 0
321 -319 320 0
-322 -314 0
-322 -321 0
322 314 321 0
-323 -4 0
-323 -322 0
323 4 322 0
-324 -227 0
-324 -233 0
324 227 233 0
-325 -254 0
-325 324 0
325 254 -324 0
-326 -232 0
-326 -325 0
326 232 325 0
-327 232 0
-327 325 0
327 -232 -325 0
-328 -326 0
-328 -327 0
328 326 327 0
-329 4 0
-329 322 0
329 -4 -322 0
-330 328 0
-330 -329 0
330 -328 329 0
-331 -323 0
-331 -330 0
331 323 330 0
-332 -3 0
-332 -331 0
332 3 331 0
-333 -236 0
-333 -242 0
333 236 242 0
-334 -254 0
-334 333 0
334 254 -333 0
-335 -241 0
-335 -334 0
335 241 334 0
-336 241 0
-336 334 0
336 -241 -334 0
-337 -335 0
-337 -336 0
337 335 336 0
-338 3 0
-338 331 0
338 -3 -331 0
-339 337 0
-339 -338 0
339 -337 338 0
-340 -332 0
-340 -339 0
340 332 339 0
-341 -264 0
-341 340 0
341 264 -340 0
-342 -301 0
-342 -302 0
342 301 302 0
-343 -341 0
-343 342 0
343 341 -342 0
-344 -259 0
-344 -343 0
344 259 343 0
-345 259 0
-345 343 0
345 -259 -343 0
-346 -344 0
-346 -345 0
346 344 345 0
-347 -332 0
-347 -338 0
347 332 338 0
-348 -341 0
-348 347 0
348 341 -347 0
-349 -337 0
-349 -348 0
349 337 348 0
-350 337 0
-350 348 0
350 -337 -348 0
-351 -349 0
-351 -350 0
351 349 350 0
-352 1 0
-352 -17 0
352 -1 17 0
-353 -11 0
-353 -352 0
353 11 352 0
-354 1 0
-354 -341 0
354 -1 341 0
-355 -16 0
-355 -354 0
355 16 354 0
-356 16 0
-356 354 0
356 -16 -354 0
-357 -355 0
-357 -356 0
357 355 356 0
-358 11 0
-358 352 0
358 -11 -352 0
-359 357 0
-359 -358 0
359 -357 358 0
-360 -353 0
-360 -359 0
360 353 359 0
-361 -10 0
-361 -360 0
361 10 360 0
-362 -266 0
-362 -271 0
362 266 271 0
-363 -341 0
-363 362 0
363 341 -362 0
-364 -270 0
-364 -363 0
364 270 363 0
-365 270 0
-365 363 0
365 -270 -363 0
-366 -364 0
-366 -365 0
366 364 365 0
-367 10 0
-367 360 0
367 -10 -360 0
-368 366 0
-368 -367 0
368 -366 367 0
-369 -361 0
-369 -368 0
369 361 368 0
-370 -9 0
-370 -369 0
370 9 369 0
-371 -274 0
-371 -280 0
371 274 280 0
-372 -341 0
-372 371 0
372 341 -371 0
-373 -279 0
-373 -372 0
373 279 372 0
-374 279 0
-374 372 0
374 -279 -372 0
-375 -373 0
-375 -374 0
375 373 374 0
-376 9 0
-376 369 0
376 -9 -369 0
-377 375 0
-377 -376 0
377 -375 376 0
-378 -370 0
-378 -377 0
378 370 377 0
-379 -8 0
-379 -378 0
379 8 378 0
-380 -283 0
-380 -289 0
380 283 289 0
-381 -341 0
-381 380 0
381 341 -380 0
-382 -288 0
-382 -381 0
382 288 381 0
-383 288 0
-383 381 0
383 -288 -381 0
-384 -382 0
-384 -383 0
384 382 383 0
-385 8 0
-385 378 0
385 -8 -378 0
-386 384 0
-386 -385 0
386 -384 385 0
-387 -379 0
-387 -386 0
387 379 386 0
-388 -7 0
-388 -387 0
388 7 387 0
-389 -292 0
-389 -298 0
389 292 298 0
-390 -341 0
-390 389 0
390 341 -389 0
-391 -297 0
-391 -390 0
391 297 390 0
-392 297 0
-392 390 0
392 -297 -390 0
-393 -391 0
-393 -392 0
393 391 392 0
-394 7 0
-394 387 0
394 -7 -387 0
-395 393 0
-395 -394 0
395 -393 394 0
-396 -388 0
-396 -395 0
396 388 395 0
-397 -6 0
-397 -396 0
397 6 396 0
-398 6 0
-398 396 0
398 -6 -396 0
-399 346 0
-399 -398 0
399 -346 398 0
-400 -397 0
-400 -399 0
400 397 399 0
-401 -5 0
-401 -400 0
401 5 400 0
-402 -305 0
-402 -311 0
402 305 311 0
-403 -341 0
-403 402 0
403 341 -402 0
-404 -310 0
-404 -403 0
404 310 403 0
-405 310 0
-405 403 0
405 -310 -403 0
-406 -404 0
-406 -405 0
406 404 405 0
-407 5 0
-407 400 0
407 -5 -400 0
-408 406 0
-408 -407 0
408 -406 407 0
-409 -401 0
-409 -408 0
409 401 408 0
-410 -4 0
-410 -409 0
410 4 409 0
-411 -314 0
-411 -320 0
411 314 320 0
-412 -341 0
-412 411 0
412 341 -411 0
-413 -319 0
-413 -412 0
413 319 412 0
-414 319 0
-414 412 0
414 -319 -412 0
-415 -413 0
-415 -414 0
415 413 414 0
-416 4 0
-416 409 0
416 -4 -409 0
-417 415 0
-417 -416 0
417 -415 416 0
-418 -410 0
-418 -417 0
418 410 417 0
-419 -3 0
-419 -418 0
419 3 418 0
-420 -323 0
-420 -329 0
420 323 329 0
-421 -341 0
-421 420 0
421 341 -420 0
-422 -328 0
-422 -421 0
422 328 421 0
-423 328 0
-423 421 0
423 -328 -421 0
-424 -422 0
-424 -423 0
424 422 423 0
-425 3 0
-425 418 0
425 -3 -418 0
-426 424 0
-426 -425 0
426 -424 425 0
-427 -419 0
-427 -426 0
427 419 426 0
-428 -351 0
-428 427 0
428 351 -427 0
-429 -397 0
-429 -398 0
429 397 398 0
-430 -428 0
-430 429 0
430 428 -429 0
-431 -346 0
-431 -430 0
431 346 430 0
-432 346 0
-432 430 0
432 -346 -430 0
-433 -431 0
-433 -432 0
433 431 432 0
-434 -419 0
-434 -425 0
434 419 425 0
-435 -428 0
-435 434 0
435 428 -434 0
-436 -424 0
-436 -435 0
436 424 435 0
-437 424 0
-437 435 0
437 -424 -435 0
-438 -436 0
-438 -437 0
438 436 437 0
-439 1 0
-439 -18 0
439 -1 18 0
-440 -11 0
-440 -439 0
440 11 439 0
-441 1 0
-441 -428 0
441 -1 428 0
-442 -17 0
-442 -441 0
442 17 441 0
-443 17 0
-443 441 0
443 -17 -441 0
-444 -442 0
-444 -443 0
444 442 443 0
-445 11 0
-445 439 0
445 -11 -439 0
-446 444 0
-446 -445 0
446 -444 445 0
-447 -440 0
-447 -446 0
447 440 446 0
-448 -10 0
-448 -447 0
448 10 447 0
-449 -353 0
-449 -358 0
449 353 358 0
-450 -428 0
-450 449 0
450 428 -449 0
-451 -357 0
-451 -450 0
451 357 450 0
-452 357 0
-452 450 0
452 -357 -450 0
-453 -451 0
-453 -452 0
453 451 452 0
-454 10 0
-454 447 0
454 -10 -447 0
-455 453 0
-455 -454 0
455 -453 454 0
-456 -448 0
-456 -455 0
456 448 455 0
-457 -9 0
-457 -456 0
457 9 456 0
-458 -361 0
-458 -367 0
458 361 367 0
-459 -428 0
-459 458 0
459 428 -458 0
-460 -366 0
-460 -459 0
460 366 459 0
-461 366 0
-461 459 0
461 -366 -459 0
-462 -460 0
-462 -461 0
462 460 461 0
-463 9 0
-463 456 0
463 -9 -456 0
-464 462 0
-464 -463 0
464 -462 463 0
-465 -457 0
-465 -464 0
465 457 464 0
-466 -8 0
-466 -465 0
466 8 465 0
-467 -370 0
-467 -376 0
467 370 376 0
-468 -428 0
-468 467 0
468 428 -467 0
-469 -375 0
-469 -468 0
469 375 468 0
-470 375 0
-470 468 0
470 -375 -468 0
-471 -469 0
-471 -470 0
471 469 470 0
-472 8 0
-472 465 0
472 -8 -465 0
-473 471 0
-473 -472 0
473 -471 472 0
-474 -466 0
-474 -473 0
474 466 473 0
-475 -7 0
-475 -474 0
475 7 474 0
-476 -379 0
-476 -385 0
476 379 385 0
-477 -428 0
-477 476 0
477 428 -476 0
-478 -384 0
-478 -477 0
478 384 477 0
-479 384 0
-479 477 0
479 -384 -477 0
-480 -478 0
-480 -479 0
480 478 479 0
-481 7 0
-481 474 0
481 -7 -474 0
-482 480 0
-482 -481 0
482 -480 481 0
-483 -475 0
-483 -482 0
483 475 482 0
-484 -6 0
-484 -483 0
484 6 483 0
-485 -388 0
-485 -394 0
485 388 394 0
-486 -428 0
-486 485 0
486 428 -485 0
-487 -393 0
-487 -486 0
487 393 486 0
-488 393 0
-488 486 0
488 -393 -486 0
-489 -487 0
-489 -488 0
489 487 488 0
-490 6 0
-490 483 0
490 -6 -483 0
-491 489 0
-491 -490 0
491 -489 490 0
-492 -484 0
-492 -491 0
492 484 491 0
-493 -5 0
-493 -492 0
493 5 492 0
-494 5 0
-494 492 0
494 -5 -492 0
-495 433 0
-495 -494 0
495 -433 494 0
-496 -493 0
-496 -495 0
496 493 495 0
-497 -4 0
-497 -496 0
497 4 496 0
-498 -401 0
-498 -407 0
498 401 407 0
-499 -428 0
-499 498 0
499 428 -498 0
-500 -406 0
-500 -499 0
500 406 499 0
-501 406 0
-501 499 0
501 -406 -499 0
-502 -500 0
-502 -501 0
502 500 501 0
-503 4 0
-503 496 0
503 -4 -496 0
-504 502 0
-504 -503 0
504 -502 503 0
-505 -497 0
-505 -504 0
505 497 504 0
-506 -3 0
-506 -505 0
506 3 505 0
-507 -410 0
-507 -416 0
507 410 416 0
-508 -428 0
-508 507 0
508 428 -507 0
-509 -415 0
-509 -508 0
509 415 508 0
-510 415 0
-510 508 0
510 -415 -508 0
-511 -509 0
-511 -510 0
511 509 510 0
-512 3 0
-512 505 0
512 -3 -505 0
-513 511 0
-513 -512 0
513 -511 512 0
-514 -506 0
-514 -513 0
514 506 513 0
-515 -438 0
-515 514 0
515 438 -514 0
-516 -493 0
-516 -494 0
516 493 494 0
-517 -515 0
-517 516 0
517 515 -516 0
-518 -433 0
-518 -517 0
518 433 517 0
-519 433 0
-519 517 0
519 -433 -517 0
-520 -518 0
-520 -519 0
520 518 519 0
-521 -506 0
-521 -512 0
521 506 512 0
-522 -515 0
-522 521 0
522 515 -521 0
-523 -511 0
-523 -522 0
523 511 522 0
-524 511 0
-524 522 0
524 -511 -522 0
-525 -523 0
-525 -524 0
525 523 524 0
-526 1 0
-526 -19 0
526 -1 19 0
-527 -11 0
-527 -526 0
527 11 526 0
-528 1 0
-528 -515 0
528 -1 515 0
-529 -18 0
-529 -528 0
529 18 528 0
-530 18 0
-530 528 0
530 -18 -528 0
-531 -529 0
-531 -530 0
531 529 530 0
-532 11 0
-532 526 0
532 -11 -526 0
-533 531 0
-533 -532 0
533 -531 532 0
-534 -527 0
-534 -533 0
534 527 533 0
-535 -10 0
-535 -534 0
535 10 534 0
-536 -440 0
-536 -445 0
536 440 445 0
-537 -515 0
-537 536 0
537 515 -536 0
-538 -444 0
-538 -537 0
538 444 537 0
-539 444 0
-539 537 0
539 -444 -537 0
-540 -538 0
-540 -539 0
540 538 539 0
-541 10 0
-541 534 0
541 -10 -534 0
-542 540 0
-542 -541 0
542 -540 541 0
-543 -535 0
-543 -542 0
543 535 542 0
-544 -9 0
-544 -543 0
544 9 543 0
-545 -448 0
-545 -454 0
545 448 454 0
-546 -515 0
-546 545 0
546 515 -545 0
-547 -453 0
-547 -546 0
547 453 546 0
-548 453 0
-548 546 0
548 -453 -546 0
-549 -547 0
-549 -548 0
549 547 548 0
-550 9 0
-550 543 0
550 -9 -543 0
-551 549 0
-551 -550 0
551 -549 550 0
-552 -544 0
-552 -551 0
552 544 551 0
-553 -8 0
-553 -552 0
553 8 552 0
-554 -457 0
-554 -463 0
554 457 463 0
-555 -515 0
-555 554 0
555 515 -554 0
-556 -462 0
-556 -555 0
556 462 555 0
-557 462 0
-557 555 0
557 -462 -555 0
-558 -556 0
-558 -557 0
558 556 557 0
-559 8 0
-559 552 0
559 -8 -552 0
-560 558 0
-560 -559 0
560 -558 559 0
-561 -553 0
-561 -560 0
561 553 560 0
-562 -7 0
-562 -561 0
562 7 561 0
-563 -466 0
-563 -472 0
563 466 472 0
-564 -515 0
-564 563 0
564 515 -563 0
-565 -471 0
-565 -564 0
565 471 564 0
-566 471 0
-566 564 0
566 -471 -564 0
-567 -565 0
-567 -566 0
567 565 566 0
-568 7 0
-568 561 0
568 -7 -561 0
-569 567 0
-569 -568 0
569 -567 568 0
-570 -562 0
-570 -569 0
570 562 569 0
-571 -6 0
-571 -570 0
571 6 570 0
-572 -475 0
-572 -481 0
572 475 481 0
-573 -515 0
-573 572 0
573 515 -572 0
-574 -480 0
-574 -573 0
574 480 573 0
-575 480 0
-575 573 0
575 -480 -573 0
-576 -574 0
-576 -575 0
576 574 575 0
-577 6 0
-577 570 0
577 -6 -570 0
-578 576 0
-578 -577 0
578 -576 577 0
-579 -571 0
-579 -578 0
579 571 578 0
-580 -5 0
-580 -579 0
580 5 579 0
-581 -484 0
-581 -490 0
581 484 490 0
-582 -515 0
-582 581 0
582 515 -581 0
-583 -489 0
-583 -582 0
583 489 582 0
-584 489 0
-584 582 0
584 -489 -582 0
-585 -583 0
-585 -584 0
585 583 584 0
-586 5 0
-586 579 0
586 -5 -579 0
-587 585 0
-587 -586 0
587 -585 586 0
-588 -580 0
-588 -587 0
588 580 587 0
-589 -4 0
-589 -588 0
589 4 588 0
-590 4 0
-590 588 0
590 -4 -588 0
-591 520 0
-591 -590 0
591 -520 590 0
-592 -589 0
-592 -591 0
592 589 591 0
-593 -3 0
-593 -592 0
593 3 592 0
-594 -497 0
-594 -503 0
594 497 503 0
-595 -515 0
-595 594 0
595 515 -594 0
-596 -502 0
-596 -595 0
596 502 595 0
-597 502 0
-597 595 0
597 -502 -595 0
-598 -596 0
-598 -597 0
598 596 597 0
-599 3 0
-599 592 0
599 -3 -592 0
-600 598 0
-600 -599 0
600 -598 599 0
-601 -593 0
-601 -600 0
601 593 600 0
-602 -525 0
-602 601 0
602 525 -601 0
-603 -589 0
-603 -590 0
603 589 590 0
-604 -602 0
-604 603 0
604 602 -603 0
-605 -520 0
-605 -604 0
605 520 604 0
-606 520 0
-606 604 0
606 -520 -604 0
-607 -605 0
-607 -606 0
607 605 606 0
-608 -593 0
-608 -599 0
608 593 599 0
-609 -602 0
-609 608 0
609 602 -608 0
-610 -598 0
-610 -609 0
610 598 609 0
-611 598 0
-611 609 0
611 -598 -609 0
-612 -610 0
-612 -611 0
612 610 611 0
-613 1 0
-613 -20 0
613 -1 20 0
-614 -11 0
-614 -613 0
614 11 613 0
-615 1 0
-615 -602 0
615 -1 602 0
-616 -19 0
-616 -615 0
616 19 615 0
-617 19 0
-617 615 0
617 -19 -615 0
-618 -616 0
-618 -617 0
618 616 617 0
-619 11 0
-619 613 0
619 -11 -613 0
-620 618 0
-620 -619 0
620 -618 619 0
-621 -614 0
-621 -620 0
621 614 620 0
-622 -10 0
-622 -621 0
622 10 621 0
-623 -527 0
-623 -532 0
623 527 532 0
-624 -602 0
-624 623 0
624 602 -623 0
-625 -531 0
-625 -624 0
625 531 624 0
-626 531 0
-626 624 0
626 -531 -624 0
-627 -625 0
-627 -626 0
627 625 626 0
-628 10 0
-628 621 0
628 -10 -621 0
-629 627 0
-629 -628 0
629 -627 628 0
-630 -622 0
-630 -629 0
630 622 629 0
-631 -9 0
-631 -630 0
631 9 630 0
-632 -535 0
-632 -541 0
632 535 541 0
-633 -602 0
-633 632 0
633 602 -632 0
-634 -540 0
-634 -633 0
634 540 633 0
-635 540 0
-635 633 0
635 -540 -633 0
-636 -634 0
-636 -635 0
636 634 635 0
-637 9 0
-637 630 0
637 -9 -630 0
-638 636 0
-638 -637 0
638 -636 637 0
-639 -631 0
-639 -638 0
639 631 638 0
-640 -8 0
-640 -639 0
640 8 639 0
-641 -544 0
-641 -550 0
641 544 550 0
-642 -602 0
-642 641 0
642 602 -641 0
-643 -549 0
-643 -642 0
643 549 642 0
-644 549 0
-644 642 0
644 -549 -642 0
-645 -643 0
-645 -644 0
645 643 644 0
-646 8 0
-646 639 0
646 -8 -639 0
-647 645 0
-647 -646 0
647 -645 646 0
-648 -640 0
-648 -647 0
648 640 647 0
-649 -7 0
-649 -648 0
649 7 648 0
-650 -553 0
-650 -559 0
650 553 559 0
-651 -602 0
-651 650 0
651 602 -650 0
-652 -558 0
-652 -651 0
652 558 651 0
-653 558 0
-653 651 0
653 -558 -651 0
-654 -652 0
-654 -653 0
654 652 653 0
-655 7 0
-655 648 0
655 -7 -648 0
-656 654 0
-656 -655 0
656 -654 655 0
-657 -649 0
-657 -656 0
657 649 656 0
-658 -6 0
-658 -657 0
658 6 657 0
-659 -562 0
-659 -568 0
659 562 568 0
-660 -602 0
-660 659 0
660 602 -659 0
-661 -567 0
-661 -660 0
661 567 660 0
-662 567 0
-662 660 0
662 -567 -660 0
-663 -661 0
-663 -662 0
663 661 662 0
-664 6 0
-664 657 0
664 -6 -657 0
-665 663 0
-665 -664 0
665 -663 664 0
-666 -658 0
-666 -665 0
666 658 665 0
-667 -5 0
-667 -666 0
667 5 666 0
-668 -571 0
-668 -577 0
668 571 577 0
-669 -602 0
-669 668 0
669 602 -668 0
-670 -576 0
-670 -669 0
670 576 669 0
-671 576 0
-671 669 0
671 -576 -669 0
-672 -670 0
-672 -671 0
672 670 671 0
-673 5 0
-673 666 0
673 -5 -666 0
-674 672 0
-674 -673 0
674 -672 673 0
-675 -667 0
-675 -674 0
675 667 674 0
-676 -4 0
-676 -675 0
676 4 675 0
-677 -580 0
-677 -586 0
677 580 586 0
-678 -602 0
-678 677 0
678 602 -677 0
-679 -585 0
-679 -678 0
679 585 678 0
-680 585 0
-680 678 0
680 -585 -678 0
-681 -679 0
-681 -680 0
681 679 680 0
-682 4 0
-682 675 0
682 -4 -675 0
-683 681 0
-683 -682 0
683 -681 682 0
-684 -676 0
-684 -683 0
684 676 683 0
-685 -3 0
-685 -684 0
685 3 684 0
-686 3 0
-686 684 0
686 -3 -684 0
-687 607 0
-687 -686 0
687 -607 686 0
-688 -685 0
-688 -687 0
688 685 687 0
-689 -612 0
-689 688 0
689 612 -688 0
-690 -685 0
-690 -686 0
690 685 686 0
-691 -689 0
-691 690 0
691 689 -690 0
-692 -607 0
-692 -691 0
692 607 691 0
-693 607 0
-693 691 0
693 -607 -691 0
-694 -692 0
-694 -693 0
694 692 693 0
-695 1 0
-695 -2 0
695 -1 2 0
-696 -11 0
-696 -695 0
696 11 695 0
-697 1 0
-697 -689 0
697 -1 689 0
-698 -20 0
-698 -697 0
698 20 697 0
-699 20 0
-699 697 0
699 -20 -697 0
-700 -698 0
-700 -699 0
700 698 699 0
-701 11 0
-701 695 0
701 -11 -695 0
-702 700 0
-702 -701 0
702 -700 701 0
-703 -696 0
-703 -702 0
703 696 702 0
-704 -10 0
-704 -703 0
704 10 703 0
-705 -614 0
-705 -619 0
705 614 619 0
-706 -689 0
-706 705 0
706 689 -705 0
-707 -618 0
-707 -706 0
707 618 706 0
-708 618 0
-708 706 0
708 -618 -706 0
-709 -707 0
-709 -708 0
709 707 708 0
-710 10 0
-710 703 0
710 -10 -703 0
-711 709 0
-711 -710 0
711 -709 710 0
-712 -704 0
-712 -711 0
712 704 711 0
-713 -9 0
-713 -712 0
713 9 712 0
-714 -622 0
-714 -628 0
714 622 628 0
-715 -689 0
-715 714 0
715 689 -714 0
-716 -627 0
-716 -715 0
716 627 715 0
-717 627 0
-717 715 0
717 -627 -715 0
-718 -716 0
-718 -717 0
718 716 717 0
-719 9 0
-719 712 0
719 -9 -712 0
-720 718 0
-720 -719 0
720 -718 719 0
-721 -713 0
-721 -720 0
721 713 720 0
-722 -8 0
-722 -721 0
722 8 721 0
-723 -631 0
-723 -637 0
723 631 637 0
-724 -689 0
-724 723 0
724 689 -723 0
-725 -636 0
-725 -724 0
725 636 724 0
-726 636 0
-726 724 0
726 -636 -724 0
-727 -725 0
-727 -726 0
727 725 726 0
-728 8 0
-728 721 0
728 -8 -721 0
-729 727 0
-729 -728 0
729 -727 728 0
-730 -722 0
-730 -729 0
730 722 729 0
-731 -7 0
-731 -730 0
731 7 730 0
-732 -640 0
-732 -646 0
732 640 646 0
-733 -689 0
-733 732 0
733 689 -732 0
-734 -645 0
-734 -733 0
734 645 733 0
-735 645 0
-735 733 0
735 -645 -733 0
-736 -734 0
-736 -735 0
736 734 735 0
-737 7 0
-737 730 0
737 -7 -730 0
-738 736 0
-738 -737 0
738 -736 737 0
-739 -731 0
-739 -738 0
739 731 738 0
-740 -6 0
-740 -739 0
740 6 739 0
-741 -649 0
-741 -655 0
741 649 655 0
-742 -689 0
-742 741 0
742 689 -741 0
-743 -654 0
-743 -742 0
743 654 742 0
-744 654 0
-744 742 0
744 -654 -742 0
-745 -743 0
-745 -744 0
745 743 744 0
-746 6 0
-746 739 0
746 -6 -739 0
-747 745 0
-747 -746 0
747 -745 746 0
-748 -740 0
-748 -747 0
748 740 747 0
-749 -5 0
-749 -748 0
749 5 748 0
-750 -658 0
-750 -664 0
750 658 664 0
-751 -689 0
-751 750 0
751 689 -750 0
-752 -663 0
-752 -751 0
752 663 751 0
-753 663 0
-753 751 0
753 -663 -751 0
-754 -752 0
-754 -753 0
754 752 753 0
-755 5 0
-755 748 0
755 -5 -748 0
-756 754 0
-756 -755 0
756 -754 755 0
-757 -749 0
-757 -756 0
757 749 756 0
-758 -4 0
-758 -757 0
758 4 757 0
-759 -667 0
-759 -673 0
759 667 673 0
-760 -689 0
-760 759 0
760 689 -759 0
-761 -672 0
-761 -760 0
761 672 760 0
-762 672 0
-762 760 0
762 -672 -760 0
-763 -761 0
-763 -762 0
763 761 762 0
-764 4 0
-764 757 0
764 -4 -757 0
-765 763 0
-765 -764 0
765 -763 764 0
-766 -758 0
-766 -765 0
766 758 765 0
-767 -3 0
-767 -766 0
767 3 766 0
-768 -676 0
-768 -682 0
768 676 682 0
-769 -689 0
-769 768 0
769 689 -768 0
-770 -681 0
-770 -769 0
770 681 769 0
-771 681 0
-771 769 0
771 -681 -769 0
-772 -770 0
-772 -771 0
772 770 771 0
-773 3 0
-773 766 0
773 -3 -766 0
-774 772 0
-774 -773 0
774 -772 773 0
-775 -767 0
-775 -774 0
775 767 774 0
-776 -694 0
-776 775 0
776 694 -775 0
-777 1 0
-777 -776 0
777 -1 776 0
778 2 777 0
779 -2 -777 0
-780 -778 0
-780 -779 0
781 -1 780 0
-782 -696 0
-782 -701 0
782 696 701 0
-783 -776 0
-783 782 0
783 776 -782 0
784 700 783 0
785 -700 -783 0
-786 -784 0
-786 -785 0
-787 -11 0
-787 786 0
788 -781 787 0
789 -11 786 0
-790 -788 0
-790 -789 0
-791 -704 0
-791 -710 0
791 704 710 0
-792 -776 0
-792 791 0
792 776 -791 0
793 709 792 0
794 -709 -792 0
-795 -793 0
-795 -794 0
-796 -10 0
-796 795 0
797 790 796 0
798 -10 795 0
-799 -797 0
-799 -798 0
-800 -713 0
-800 -719 0
800 713 719 0
-801 -776 0
-801 800 0
801 776 -800 0
802 718 801 0
803 -718 -801 0
-804 -802 0
-804 -803 0
-805 -9 0
-805 804 0
806 799 805 0
807 -9 804 0
-808 -806 0
-808 -807 0
-809 -722 0
-809 -728 0
809 722 728 0
-810 -776 0
-810 809 0
810 776 -809 0
811 727 810 0
812 -727 -810 0
-813 -811 0
-813 -812 0
-814 -8 0
-814 813 0
815 808 814 0
816 -8 813 0
-817 -815 0
-817 -816 0
-818 -731 0
-818 -737 0
818 731 737 0
-819 -776 0
-819 818 0
819 776 -818 0
820 736 819 0
821 -736 -819 0
-822 -820 0
-822 -821 0
-823 -7 0
-823 822 0
824 817 823 0
825 -7 822 0
-826 -824 0
-826 -825 0
-827 -740 0
-827 -746 0
827 740 746 0
-828 -776 0
-828 827 0
828 776 -827 0
829 745 828 0
830 -745 -828 0
-831 -829 0
-831 -830 0
-832 -6 0
-832 831 0
833 826 832 0
834 -6 831 0
-835 -833 0
-835 -834 0
-836 -749 0
-836 -755 0
836 749 755 0
-837 -776 0
-837 836 0
837 776 -836 0
838 754 837 0
839 -754 -837 0
-840 -838 0
-840 -839 0
-841 -5 0
-841 840 0
842 835 841 0
843 -5 840 0
-844 -842 0
-844 -843 0
-845 -758 0
-845 -764 0
845 758 764 0
-846 -776 0
-846 845 0
846 776 -845 0
847 763 846 0
848 -763 -846 0
-849 -847 0
-849 -848 0
-850 -4 0
-850 849 0
851 844 850 0
852 -4 849 0
-853 -851 0
-853 -852 0
-854 -767 0
-854 -773 0
854 767 773 0
-855 -776 0
-855 854 0
855 776 -854 0
856 772 855 0
857 -772 -855 0
-858 -856 0
-858 -857 0
-859 -3 0
-859 858 0
860 853 859 0
861 -3 858 0
-862 -860 0
-862 -861 0
863 3 4 0
864 5 -863 0
865 6 -864 0
866 7 -865 0
867 8 -866 0
868 9 -867 0
869 10 -868 0
870 11 -869 0
871 1 -870 0
-872 862 0
-872 -871 0
872 0
